[[17, 51, 75, 68, 6, 33, 73, 63, 23, 56, 41, 43, 42, 64, 22, 61, 28, 62, 2, 74, 30, 48, 21, 47, 69, 36, 71, 60, 70, 20, 37, 5, 29, 15, 57, 13, 54], [27, 52, 45, 34, 4, 76, 26, 67, 46, 8, 7, 35, 19, 53, 14, 59, 11, 66, 65, 38, 10, 31, 58, 72, 39, 12, 40, 32, 9, 25, 55, 50, 18, 24, 49, 3, 44, 16]]